(declare-fun ExpandObjSwitcher () Real)
(declare-fun CreateAsClass () Bool)
(declare-fun ExpandObjSwitcher_2 () Real)
(declare-fun Constructed_Argument_t () String)
(declare-fun CreateAsClass_2 () Bool)
(declare-fun ExpandObjSwitcher_3 () Real)
(declare-fun Constructed_Argument_2_t () String)
(declare-fun CreateAsClass_3 () Bool)
(declare-fun ExpandObjSwitcher_4 () Real)
(declare-fun Constructed_Argument_3_t () String)
(declare-fun CreateAsClass_4 () Bool)
(declare-fun ExpandObjSwitcher_5 () Real)
(declare-fun Constructed_Argument_4_t () String)
(declare-fun CreateAsClass_5 () Bool)
(declare-fun ExpandObjSwitcher_6 () Real)
(declare-fun Constructed_Argument_5_t () String)
(declare-fun CreateAsClass_6 () Bool)
(declare-fun ExpandObjSwitcher_7 () Real)
(declare-fun Constructed_Argument_6_t () String)
(declare-fun CreateAsClass_7 () Bool)
(declare-fun ExpandObjSwitcher_8 () Real)
(declare-fun Constructed_Argument_7_t () String)
(define-funs-rec ( ( str.repeat ((x!1 String) (x!2 Int)) String)
                   ( str.whiteLeft ((x!1 String) (x!2 Int)) Int)
                   ( str.whiteRight ((x!1 String) (x!2 Int)) Int))
                 ( (ite (<= x!2 0)
                        ""
                        (str.++ x!1 ((_ str.repeat 0) x!1 (- x!2 1))))
                   (ite (= (str.at x!1 x!2) " ")
                        ((_ str.whiteLeft 0) x!1 (+ x!2 1))
                        x!2)
                   (ite (= (str.at x!1 x!2) " ")
                        ((_ str.whiteRight 0) x!1 (- x!2 1))
                        x!2)))
(assert (= ExpandObjSwitcher 1.0))
(assert (not CreateAsClass))
(assert (= ExpandObjSwitcher_2 10.0))
(assert (not (= Constructed_Argument_t "string")))
(assert (not (= Constructed_Argument_t "number")))
(assert (not (= Constructed_Argument_t "boolean")))
(assert (not (= Constructed_Argument_t "object")))
(assert (not (= Constructed_Argument_t "array_number")))
(assert (not (= Constructed_Argument_t "array_string")))
(assert (not (= Constructed_Argument_t "array_bool")))
(assert (not (= Constructed_Argument_t "null")))
(assert (not CreateAsClass_2))
(assert (= ExpandObjSwitcher_3 10.0))
(assert (not (= Constructed_Argument_2_t "string")))
(assert (not (= Constructed_Argument_2_t "number")))
(assert (not (= Constructed_Argument_2_t "boolean")))
(assert (not (= Constructed_Argument_2_t "object")))
(assert (not (= Constructed_Argument_2_t "array_number")))
(assert (not (= Constructed_Argument_2_t "array_string")))
(assert (not (= Constructed_Argument_2_t "array_bool")))
(assert (not (= Constructed_Argument_2_t "null")))
(assert (not CreateAsClass_3))
(assert (= ExpandObjSwitcher_4 10.0))
(assert (not (= Constructed_Argument_3_t "string")))
(assert (not (= Constructed_Argument_3_t "number")))
(assert (not (= Constructed_Argument_3_t "boolean")))
(assert (not (= Constructed_Argument_3_t "object")))
(assert (not (= Constructed_Argument_3_t "array_number")))
(assert (not (= Constructed_Argument_3_t "array_string")))
(assert (not (= Constructed_Argument_3_t "array_bool")))
(assert (not (= Constructed_Argument_3_t "null")))
(assert (not CreateAsClass_4))
(assert (= ExpandObjSwitcher_5 10.0))
(assert (not (= Constructed_Argument_4_t "string")))
(assert (not (= Constructed_Argument_4_t "number")))
(assert (not (= Constructed_Argument_4_t "boolean")))
(assert (not (= Constructed_Argument_4_t "object")))
(assert (not (= Constructed_Argument_4_t "array_number")))
(assert (not (= Constructed_Argument_4_t "array_string")))
(assert (not (= Constructed_Argument_4_t "array_bool")))
(assert (not (= Constructed_Argument_4_t "null")))
(assert (not CreateAsClass_5))
(assert (= ExpandObjSwitcher_6 10.0))
(assert (not (= Constructed_Argument_5_t "string")))
(assert (not (= Constructed_Argument_5_t "number")))
(assert (not (= Constructed_Argument_5_t "boolean")))
(assert (not (= Constructed_Argument_5_t "object")))
(assert (not (= Constructed_Argument_5_t "array_number")))
(assert (not (= Constructed_Argument_5_t "array_string")))
(assert (not (= Constructed_Argument_5_t "array_bool")))
(assert (not (= Constructed_Argument_5_t "null")))
(assert (not CreateAsClass_6))
(assert (= ExpandObjSwitcher_7 10.0))
(assert (not (= Constructed_Argument_6_t "string")))
(assert (not (= Constructed_Argument_6_t "number")))
(assert (not (= Constructed_Argument_6_t "boolean")))
(assert (not (= Constructed_Argument_6_t "object")))
(assert (not (= Constructed_Argument_6_t "array_number")))
(assert (not (= Constructed_Argument_6_t "array_string")))
(assert (not (= Constructed_Argument_6_t "array_bool")))
(assert (not (= Constructed_Argument_6_t "null")))
(assert (not CreateAsClass_7))
(assert (not (= ExpandObjSwitcher_8 0.0)))
(assert (not (= ExpandObjSwitcher_8 1.0)))
(assert (not (= ExpandObjSwitcher_8 2.0)))
(assert (not (= ExpandObjSwitcher_8 3.0)))
(assert (not (= ExpandObjSwitcher_8 4.0)))
(assert (not (= ExpandObjSwitcher_8 5.0)))
(assert (not (= ExpandObjSwitcher_8 6.0)))
(assert (not (= ExpandObjSwitcher_8 7.0)))
(assert (= ExpandObjSwitcher_8 8.0))
(assert (= Constructed_Argument_7_t "string"))

(check-sat)
